data/solutions/recovery/wellformed/moderate/flexible/wellformed_moderate_instance89/4.sol
Elapsed time: 28.29
Upper bound: 7245.0
Planning weighted value: 434870.0
C[0]=7245.0
C[1]=7242.0
C[2]=7239.0
C[3]=7229.0
C[4]=7221.0
C[5]=7187.0
y[0]=0
y[1]=5
y[2]=2
y[3]=0
y[4]=1
y[5]=2
y[6]=4
y[7]=4
y[8]=5
y[9]=0
y[10]=1
y[11]=4
y[12]=5
y[13]=3
y[14]=2
y[15]=0
y[16]=0
y[17]=1
y[18]=4
y[19]=3
y[20]=4
y[21]=0
y[22]=3
y[23]=5
y[24]=2
y[25]=2
y[26]=3
y[27]=1
y[28]=5
y[29]=4
y[30]=5
y[31]=1
y[32]=3
y[33]=3
y[34]=5
y[35]=1
y[36]=3
y[37]=3
y[38]=0
y[39]=1
y[40]=1
y[41]=2
