data/solutions/recovery/wellformed/moderate/flexible/wellformed_moderate_instance89/4.log

Log started (V12.6.3.0) Fri Apr 20 19:13:49 2018

New value for default parallel thread count: 1

Problem '/tmp/tmpStnNxs.pyomo.lp' read.
Read time = 0.00 sec. (0.13 ticks)

Problem name         : /tmp/tmpStnNxs.pyomo.lp
Objective sense      : Minimize
Variables            :     260  [Nneg: 1,  Binary: 252,  General Integer: 7]
Objective nonzeros   :       1
Linear constraints   :      97  [Less: 48,  Equal: 49]
  Nonzeros           :    8917
  RHS nonzeros       :      85

Variables            : Min LB: 0.000000         Max UB: 1.000000       
Objective nonzeros   : Min   : 1.000000         Max   : 1.000000       
Linear constraints   :
  Nonzeros           : Min   : 1.000000         Max   : 1980.000       
  RHS nonzeros       : Min   : 1.000000         Max   : 5.000000       
Tried aggregator 2 times.
MIP Presolve eliminated 42 rows and 6 columns.
Aggregator did 7 substitutions.
Reduced MIP has 48 rows, 247 columns, and 693 nonzeros.
Reduced MIP has 246 binaries, 1 generals, 0 SOSs, and 0 indicators.
Presolve time = 0.00 sec. (2.20 ticks)
Found incumbent of value 43363.000000 after 0.00 sec. (2.69 ticks)
Probing time = 0.00 sec. (0.26 ticks)
Cover probing fixed 0 vars, tightened 4 bounds.
Tried aggregator 1 time.
Reduced MIP has 48 rows, 247 columns, and 693 nonzeros.
Reduced MIP has 246 binaries, 1 generals, 0 SOSs, and 0 indicators.
Presolve time = 0.00 sec. (0.41 ticks)
Probing time = 0.00 sec. (0.18 ticks)
Clique table members: 41.
MIP emphasis: balance optimality and feasibility.
MIP search method: dynamic search.
Parallel mode: none, using 1 thread.
Root relaxation solution time = 0.00 sec. (0.19 ticks)

        Nodes                                         Cuts/
   Node  Left     Objective  IInf  Best Integer    Best Bound    ItCnt     Gap

*     0+    0                        43363.0000     1980.0000            95.43%
      0     0     7227.1667     8    43363.0000     7227.1667        8   83.33%
*     0+    0                         7812.0000     7227.1667             7.49%
      0     0     7228.0000    14     7812.0000      Fract: 7       27    7.48%
*     0+    0                         7519.0000     7228.0000             3.87%
      0     0     7228.0000    16     7519.0000      Cuts: 14       55    3.87%
      0     0     7228.0000    16     7519.0000       Cuts: 5       71    3.87%
      0     2     7228.0000    11     7519.0000     7228.0000       71    3.87%
Elapsed time = 0.02 sec. (16.69 ticks, tree = 0.01 MB, solutions = 3)
*   110+   53                         7415.0000     7228.0000             2.52%
*   606   399      integral     0     7402.0000     7228.0000     3647    2.35%
*   969+  564                         7372.0000     7228.0000             1.95%
*   970+  377                         7296.0000     7228.0000             0.93%
*  1170+  250                         7288.0000     7228.0000             0.82%
*  1170+  199                         7261.0000     7228.0000             0.45%
   1266   201     7228.0000     9     7261.0000     7228.0000     6389    0.45%
   1267   200     7228.0000    10     7261.0000     7228.0000     6392    0.45%
   1268   199     7228.0000     9     7261.0000     7228.0000     6395    0.45%
   1269   199     7228.0000     9     7261.0000     7228.0000     6396    0.45%
   1270   199     7228.0000     9     7261.0000     7228.0000     6397    0.45%
   1271   198     7228.0000    10     7261.0000     7228.0000     6400    0.45%
   1272   197     7228.0000     9     7261.0000     7228.0000     6403    0.45%
   1273   197     7228.0000     9     7261.0000     7228.0000     6404    0.45%
   1274   197     7228.0000     9     7261.0000     7228.0000     6405    0.45%
*  1670+  394                         7259.0000     7228.0000             0.43%
*  1770+  364                         7251.0000     7228.0000             0.32%
*  1870+  441                         7250.0000     7228.0000             0.30%
   1970   517     7249.0000     8     7250.0000     7228.0000     8241    0.30%
Elapsed time = 0.89 sec. (970.84 ticks, tree = 0.16 MB, solutions = 12)
   5078  2091     7229.3996    39     7250.0000     7228.0000    48926    0.30%
   5079  2092     7229.4194    37     7250.0000     7228.0000    48929    0.30%
   5080  2093     7229.6347    39     7250.0000     7228.0000    48935    0.30%
   5081  2094     7229.6919    39     7250.0000     7228.0000    48941    0.30%
   5082  2095     7230.4055    39     7250.0000     7228.0000    48953    0.30%
   5083  2096     7231.0328    41     7250.0000     7228.0000    48973    0.30%
   5084  2097     7231.0805    41     7250.0000     7228.0000    48977    0.30%
   5085  2098     7233.2730    35     7250.0000     7228.0000    48988    0.30%
   5086  2099     7234.0238    36     7250.0000     7228.0000    48996    0.30%
   5087  2100     7234.6382    35     7250.0000     7228.0000    49008    0.30%
Elapsed time = 1.65 sec. (1927.46 ticks, tree = 0.67 MB, solutions = 12)
   6675  2486        cutoff           7250.0000     7228.0000    94996    0.30%
   6676  2485        cutoff           7250.0000     7228.0000    95023    0.30%
   6677  2484    infeasible           7250.0000     7228.0000    95023    0.30%
   6678  2483        cutoff           7250.0000     7228.0000    95186    0.30%
   6679  2482        cutoff           7250.0000     7228.0000    95368    0.30%
   6680  2482     7242.1857    31     7250.0000     7228.0000    95505    0.30%
   6681  2483     7242.1857    31     7250.0000     7228.0000    95505    0.30%
   6682  2482        cutoff           7250.0000     7228.0000    95519    0.30%
   6683  2481        cutoff           7250.0000     7228.0000    95542    0.30%
   6684  2480        cutoff           7250.0000     7228.0000    95585    0.30%
Elapsed time = 2.33 sec. (2899.02 ticks, tree = 0.78 MB, solutions = 12)
   8087  3316     7228.0000    25     7250.0000     7228.0000   136115    0.30%
   8088  3317     7228.0000    25     7250.0000     7228.0000   136137    0.30%
   8089  3318     7228.0000    30     7250.0000     7228.0000   136172    0.30%
   8090  3319     7228.0000    25     7250.0000     7228.0000   136202    0.30%
   8091  3320     7228.0000    28     7250.0000     7228.0000   136223    0.30%
   8092  3321     7228.0000    28     7250.0000     7228.0000   136226    0.30%
   8093  3322     7228.0000    23     7250.0000     7228.0000   136238    0.30%
   8094  3323     7228.0000    27     7250.0000     7228.0000   136261    0.30%
   8095  3324     7228.0000    29     7250.0000     7228.0000   136283    0.30%
   8096  3325     7228.0000    31     7250.0000     7228.0000   136330    0.30%
Elapsed time = 3.00 sec. (3857.78 ticks, tree = 1.13 MB, solutions = 12)
   9550  4368     7229.7427    44     7250.0000     7228.0000   167008    0.30%
   9551  4369     7229.7448    43     7250.0000     7228.0000   167010    0.30%
   9552  4370     7229.9480    42     7250.0000     7228.0000   167016    0.30%
   9553  4371     7230.5607    40     7250.0000     7228.0000   167026    0.30%
   9554  4372     7231.0484    42     7250.0000     7228.0000   167038    0.30%
   9555  4373     7231.0503    42     7250.0000     7228.0000   167039    0.30%
   9556  4374     7231.6528    45     7250.0000     7228.0000   167046    0.30%
   9557  4375     7231.8841    46     7250.0000     7228.0000   167061    0.30%
   9558  4376     7232.5699    45     7250.0000     7228.0000   167076    0.30%
   9559  4377     7232.5705    45     7250.0000     7228.0000   167077    0.30%
Elapsed time = 3.65 sec. (4818.82 ticks, tree = 2.48 MB, solutions = 12)
*  9970  4298      integral     0     7245.0000     7228.0000   181040    0.23%
  10436  4529        cutoff           7245.0000     7228.0000   200514    0.23%
  10437  4528        cutoff           7245.0000     7228.0000   200628    0.23%
  10438  4527        cutoff           7245.0000     7228.0000   200684    0.23%
  10439  4526        cutoff           7245.0000     7228.0000   200748    0.23%
  10440  4525        cutoff           7245.0000     7228.0000   200855    0.23%
  10441  4524        cutoff           7245.0000     7228.0000   200963    0.23%
  10442  4523        cutoff           7245.0000     7228.0000   201005    0.23%
  10443  4524     7237.4826    48     7245.0000     7228.0000   201190    0.23%
  10444  4525     7237.7502    48     7245.0000     7228.0000   201194    0.23%
  10445  4526     7239.6172    49     7245.0000     7228.0000   201220    0.23%
Elapsed time = 4.29 sec. (5791.08 ticks, tree = 2.64 MB, solutions = 13)
  10792  4550     7240.0344    33     7245.0000     7228.0000   220831    0.23%
  10793  4551     7240.0344    32     7245.0000     7228.0000   220836    0.23%
  10794  4551     7240.0994    33     7245.0000     7228.0000   220843    0.23%
  10795  4552     7240.0994    33     7245.0000     7228.0000   220847    0.23%
  10796  4553     7240.8662    34     7245.0000     7228.0000   220860    0.23%
  10797  4554     7240.8838    32     7245.0000     7228.0000   220862    0.23%
  10798  4555     7242.2827    35     7245.0000     7228.0000   220884    0.23%
  10799  4555     7243.6622    31     7245.0000     7228.0000   220894    0.23%
  10800  4554        cutoff           7245.0000     7228.0000   220895    0.23%
  10801  4553        cutoff           7245.0000     7228.0000   221008    0.23%
Elapsed time = 5.18 sec. (6752.64 ticks, tree = 2.67 MB, solutions = 13)
  11604  4782     7228.0000    40     7245.0000     7228.0000   254066    0.23%
  11605  4783     7228.0000    41     7245.0000     7228.0000   254210    0.23%
  11606  4784     7228.0000    36     7245.0000     7228.0000   254219    0.23%
  11607  4785     7228.2251    37     7245.0000     7228.0000   254348    0.23%
  11608  4786     7235.2330    34     7245.0000     7228.0000   254380    0.23%
  11609  4787     7235.5333    38     7245.0000     7228.0000   254394    0.23%
  11610  4788     7236.6195    33     7245.0000     7228.0000   254412    0.23%
  11611  4789     7238.8448    34     7245.0000     7228.0000   254439    0.23%
  11612  4790     7239.4350    44     7245.0000     7228.0000   254457    0.23%
  11613  4791     7239.4793    42     7245.0000     7228.0000   254458    0.23%
Elapsed time = 5.82 sec. (7715.98 ticks, tree = 2.86 MB, solutions = 13)
  12414  5089        cutoff           7245.0000     7228.0000   286349    0.23%
  12415  5088        cutoff           7245.0000     7228.0000   286392    0.23%
  12416  5087        cutoff           7245.0000     7228.0000   286490    0.23%
  12417  5086        cutoff           7245.0000     7228.0000   286685    0.23%
  12418  5087     7235.9603    35     7245.0000     7228.0000   286907    0.23%
  12419  5088     7236.0398    36     7245.0000     7228.0000   286909    0.23%
  12420  5089     7236.1370    36     7245.0000     7228.0000   286911    0.23%
  12421  5090     7236.3344    34     7245.0000     7228.0000   286915    0.23%
  12422  5091     7236.3547    33     7245.0000     7228.0000   286918    0.23%
  12423  5092     7238.1479    34     7245.0000     7228.0000   286932    0.23%
Elapsed time = 6.46 sec. (8686.09 ticks, tree = 2.95 MB, solutions = 13)
  13116  5292     7231.5218    43     7245.0000     7228.0000   318858    0.23%
  13117  5293     7231.5559    40     7245.0000     7228.0000   318860    0.23%
  13118  5294     7232.5528    39     7245.0000     7228.0000   318885    0.23%
  13119  5295     7232.6852    37     7245.0000     7228.0000   318889    0.23%
  13120  5296     7233.7644    38     7245.0000     7228.0000   318919    0.23%
  13121  5295        cutoff           7245.0000     7228.0000   318936    0.23%
  13122  5294        cutoff           7245.0000     7228.0000   318954    0.23%
  13123  5295     7237.4015    43     7245.0000     7228.0000   319142    0.23%
  13124  5296     7239.7043    45     7245.0000     7228.0000   319187    0.23%
  15013  5866     7242.0319    52     7245.0000     7228.0000   405342    0.23%
Elapsed time = 8.97 sec. (12501.31 ticks, tree = 3.65 MB, solutions = 13)
  17463  6713     7228.3585    51     7245.0000     7228.0000   515731    0.23%
  17464  6714     7229.1460    59     7245.0000     7228.0000   515749    0.23%
  17465  6715     7231.6790    54     7245.0000     7228.0000   515816    0.23%
  17466  6716     7231.7331    55     7245.0000     7228.0000   515821    0.23%
  17467  6717     7231.7690    50     7245.0000     7228.0000   515825    0.23%
  17468  6718     7231.8082    48     7245.0000     7228.0000   515827    0.23%
  17469  6719     7231.8256    46     7245.0000     7228.0000   515833    0.23%
  17470  6720     7232.4586    44     7245.0000     7228.0000   515849    0.23%
  17471  6721     7232.9352    37     7245.0000     7228.0000   515854    0.23%
  17472  6722     7232.9570    37     7245.0000     7228.0000   515860    0.23%
Elapsed time = 11.52 sec. (16323.08 ticks, tree = 4.63 MB, solutions = 13)
  19826  7686     7228.9173    58     7245.0000     7228.0000   617891    0.23%
  19827  7687     7228.9403    55     7245.0000     7228.0000   617896    0.23%
  19828  7688     7229.0105    52     7245.0000     7228.0000   617909    0.23%
  19829  7687        cutoff           7245.0000     7228.0000   617944    0.23%
  19830  7688     7229.0785    55     7245.0000     7228.0000   617956    0.23%
  19831  7689     7229.0905    60     7245.0000     7228.0000   617973    0.23%
  19832  7690     7233.5129    51     7245.0000     7228.0000   618081    0.23%
  19833  7691     7233.5640    47     7245.0000     7228.0000   618087    0.23%
  19834  7690        cutoff           7245.0000     7228.0000   618101    0.23%
  19835  7691     7240.8751    47     7245.0000     7228.0000   618173    0.23%
Elapsed time = 14.06 sec. (20161.81 ticks, tree = 6.01 MB, solutions = 13)
  22181  8515     7229.8804    61     7245.0000     7228.0000   723755    0.23%
  22182  8516     7229.9024    61     7245.0000     7228.0000   723760    0.23%
  22183  8517     7230.1376    57     7245.0000     7228.0000   723772    0.23%
  22184  8518     7230.1655    56     7245.0000     7228.0000   723773    0.23%
  22185  8519     7232.9642    56     7245.0000     7228.0000   723855    0.23%
  22186  8520     7232.9881    55     7245.0000     7228.0000   723863    0.23%
  22187  8521     7233.0299    53     7245.0000     7228.0000   723868    0.23%
  22188  8520        cutoff           7245.0000     7228.0000   723922    0.23%
  22189  8521     7233.8855    55     7245.0000     7228.0000   723956    0.23%
  22190  8522     7234.2519    53     7245.0000     7228.0000   723975    0.23%
Elapsed time = 16.55 sec. (23993.74 ticks, tree = 7.41 MB, solutions = 13)
  25267  9617     7236.1018    31     7245.0000     7229.0766   815307    0.22%
  25268  9618     7236.6188    33     7245.0000     7229.0766   815318    0.22%
  25269  9618     7236.9378    38     7245.0000     7229.0766   815332    0.22%
  25270  9618     7236.9927    37     7245.0000     7229.0766   815333    0.22%
  25271  9619     7236.9948    35     7245.0000     7229.0766   815334    0.22%
  25272  9620     7239.6886    42     7245.0000     7229.0766   815361    0.22%
  25273  9620     7240.5313    40     7245.0000     7229.0766   815371    0.22%
  25274  9621     7240.5313    40     7245.0000     7229.0766   815372    0.22%
  25275  9620        cutoff           7245.0000     7229.0766   815374    0.22%
  25276  9619        cutoff           7245.0000     7229.0766   815375    0.22%
Elapsed time = 19.10 sec. (27813.93 ticks, tree = 9.27 MB, solutions = 13)
  29018  9521        cutoff           7245.0000     7231.7383   898118    0.18%
  29019  9520        cutoff           7245.0000     7231.7384   898127    0.18%
  29020  9519        cutoff           7245.0000     7231.7412   898186    0.18%
  29021  9519     7236.1410    42     7245.0000     7231.7431   898234    0.18%
  29022  9520     7236.8622    43     7245.0000     7231.7431   898250    0.18%
  29023  9521     7237.0750    38     7245.0000     7231.7431   898259    0.18%
  29024  9522     7238.2518    39     7245.0000     7231.7431   898275    0.18%
  29025  9523     7241.0209    46     7245.0000     7231.7431   898342    0.18%
  29026  9524     7241.2406    46     7245.0000     7231.7431   898348    0.18%
  29027  9523        cutoff           7245.0000     7231.7431   898353    0.18%
Elapsed time = 21.60 sec. (31639.60 ticks, tree = 10.58 MB, solutions = 13)
  33059  8049     7243.1189    47     7245.0000     7234.5359   982433    0.14%
  33060  8048        cutoff           7245.0000     7234.5359   982436    0.14%
  33061  8047        cutoff           7245.0000     7234.5361   982454    0.14%
  33062  8046        cutoff           7245.0000     7234.5373   982473    0.14%
  33063  8045        cutoff           7245.0000     7234.5374   982506    0.14%
  33064  8046     7234.5646    47     7245.0000     7234.5380   982511    0.14%
  33065  8047     7235.3618    42     7245.0000     7234.5380   982535    0.14%
  33066  8048     7236.2012    49     7245.0000     7234.5380   982546    0.14%
  33067  8049     7236.9942    55     7245.0000     7234.5380   982557    0.14%
  33068  8048        cutoff           7245.0000     7234.5380   982565    0.14%
Elapsed time = 24.06 sec. (35461.56 ticks, tree = 10.13 MB, solutions = 13)
  37741  5118        cutoff           7245.0000     7237.8993  1062781    0.10%
  37742  5117        cutoff           7245.0000     7237.8996  1062808    0.10%
  37743  5116        cutoff           7245.0000     7237.9004  1062811    0.10%
  37744  5115        cutoff           7245.0000     7237.9026  1062840    0.10%
  37745  5114        cutoff           7245.0000     7237.9028  1062848    0.10%
  37746  5113        cutoff           7245.0000     7237.9038  1062849    0.10%
  37747  5114     7243.1460    46     7245.0000     7237.9041  1062942    0.10%
  37748  5113        cutoff           7245.0000     7237.9041  1062947    0.10%
  37749  5112        cutoff           7245.0000     7237.9041  1062949    0.10%
  37750  5113     7242.1716    33     7245.0000     7237.9052  1062990    0.10%
Elapsed time = 26.57 sec. (39284.64 ticks, tree = 6.75 MB, solutions = 13)

Cover cuts applied:  173
Mixed integer rounding cuts applied:  61
Lift and project cuts applied:  1
Gomory fractional cuts applied:  5

Root node processing (before b&c):
  Real time             =    0.02 sec. (16.71 ticks)
Sequential b&c:
  Real time             =   28.25 sec. (41966.12 ticks)
                          ------------
Total (root+branch&cut) =   28.27 sec. (41982.84 ticks)

Solution pool: 13 solutions saved.

MIP - Integer optimal solution:  Objective =  7.2450000000e+03
Solution time =   28.27 sec.  Iterations = 1115650  Nodes = 43354
Deterministic time = 41982.84 ticks  (1484.92 ticks/sec)


Incumbent solution written to file '/tmp/tmpROXmbV.cplex.sol'.
